36 28
15 720
1 385
14 787
8 531
16 492
15 775
18 93
13 399
23 372
4 826
3 868
12 738
11 444
1 157
5 384
4 404
5 153
16 469
10 343
3 843
26 806
26 665
11 35
1 877
5 587
14 151
25 167
8 983
25 98
5 388
17 183
6 795
21 155
11 729
10 256
25 832
